\ Model (null)_copy
\ LP format - for model browsing. Use MPS format to capture full model detail.
Minimize
 
Subject To
 C2547: X2754 + X2755 + 999999 X3012 >= 15
 C2552: - X2754 + X2755 + 999999 X3014 <= 999994
 C2568: - X3010 + X3012 - X3014 + X3018 <= -1
Bounds
 -infinity <= X2754 <= 3
 X2755 = 4
Binaries
 X3010 X3012 X3014 X3018
Generals
 X2754 X2755
End
